
  32    4
  10   10   10   10

   0   0   0   0   0  11 2 3 5 7 8 11 19 28 29 30 31 
   8   1   1   0   1   9 26 25 24 18 14 13 10 9 6 
   8   4   5   1   0   5 27 25 24 9 4 
   2   0   8   3   5   1 6 
   3   4   0   2   2   5 26 24 23 22 17 
   3   7   4   2   0   4 23 22 21 12 
   8   2   4   2   0   3 21 15 12 
   2   6   0   6   4   2 23 13 
   7   6   0   4   5   2 22 16 
   1   1   0   5   2   2 21 15 
   9   0   4   4   4   1 13 
   9   3   3   4   0   1 16 
  10   4   4   3   0   1 15 
   8   2   3   4   0   1 15 
   8   0   5   3   7   1 20 
   5   2   0   6   4   1 20 
   4   7   4   0   3   1 21 
   2   0   3   4   3   1 20 
  10   2   3   0   4   1 21 
   8   0   4   6   4   1 32
   5   5   4   3   0   1 32
   6   5   5   6   0   1 32
   8   6   3   0   4   1 32
   7   4   7   5   0   1 32
   1   4   2   4   0   1 32
   4   0   1   5   8   1 32
   2   4   5   0   4   1 32
   3   6   2   4   0   1 32
   1   6   5   0   1   1 32
   2   2   0   5   7   1 32
   3   3   7   5   0   1 32
   0   0   0   0   0   0 
